solution status: optimal solution found
objective value:                                    0
$_64_y                                             19 	(obj:0)
$_64_z                                             25 	(obj:0)
$_15_y                                            -25 	(obj:0)
$_15_z                                             -6 	(obj:0)
$_30_y                                             24 	(obj:0)
$_30_z                                              9 	(obj:0)
$_25__0_y                                          24 	(obj:0)
$_25__0_z                                          25 	(obj:0)
$_16_y                                             22 	(obj:0)
$_16_z                                             25 	(obj:0)
$_14_y                                             25 	(obj:0)
$_14_z                                             17 	(obj:0)
$_24__0_y                                          24 	(obj:0)
$_24__0_z                                          24 	(obj:0)
$_26_y                                             25 	(obj:0)
$_26_z                                              9 	(obj:0)
$_20__0_y                                         -25 	(obj:0)
$_20__0_z                                          25 	(obj:0)
$_52_y                                             23 	(obj:0)
$_52_z                                             25 	(obj:0)
$_18__0_y                                         -22 	(obj:0)
$_18__0_z                                         -25 	(obj:0)
$_22__0_y                                          25 	(obj:0)
$_22__0_z                                          23 	(obj:0)
$_42_y                                             25 	(obj:0)
$_42_z                                             11 	(obj:0)
$_29_y                                             17 	(obj:0)
$_29_z                                             25 	(obj:0)
$_27_y                                            -25 	(obj:0)
$_27_z                                            -14 	(obj:0)
$_21__0_y                                         -24 	(obj:0)
$_21__0_z                                         -25 	(obj:0)
$_23__0_y                                          -9 	(obj:0)
$_23__0_z                                         -25 	(obj:0)
$_19__0_y                                         -23 	(obj:0)
$_19__0_z                                         -25 	(obj:0)
$_17_y                                             25 	(obj:0)
$_17_z                                             24 	(obj:0)
$_28_y                                             25 	(obj:0)
$_28_z                                             25 	(obj:0)
